LED/led_8.lp
Minimize
x0 + x1 + x2 + x3 + x4 + x5 + x6 + x7 + x8 + x9 + x10 + x11 + x12 + x13 + x14 + x15 + x16 + x20 + x24 + x28 + x17 + x21 + x25 + x29 + x18 + x22 + x26 + x30 + x19 + x23 + x27 + x31 + x32 + x36 + x40 + x44 + x33 + x37 + x41 + x45 + x34 + x38 + x42 + x46 + x35 + x39 + x43 + x47 + x48 + x52 + x56 + x60 + x49 + x53 + x57 + x61 + x50 + x54 + x58 + x62 + x51 + x55 + x59 + x63 + x64 + x68 + x72 + x76 + x65 + x69 + x73 + x77 + x66 + x70 + x74 + x78 + x67 + x71 + x75 + x79 + x80 + x84 + x88 + x92 + x81 + x85 + x89 + x93 + x82 + x86 + x90 + x94 + x83 + x87 + x91 + x95 + x96 + x100 + x104 + x108 + x97 + x101 + x105 + x109 + x98 + x102 + x106 + x110 + x99 + x103 + x107 + x111 + x112 + x116 + x120 + x124 + x113 + x117 + x121 + x125 + x114 + x118 + x122 + x126 + x115 + x119 + x123 + x127 + 
Subject To
\\AddConstants
\\SBOX
\\SBOX
\\SBOX
\\SBOX
\\SBOX
\\SBOX
\\SBOX
\\SBOX
\\SBOX
\\SBOX
\\SBOX
\\SBOX
\\SBOX
\\SBOX
\\SBOX
\\SBOX
\\Identity
\\Identity
\\Identity
\\Identity
\\Identity
\\Identity
\\Identity
\\Identity
\\Identity
\\Identity
\\Identity
\\Identity
\\Identity
\\Identity
\\Identity
\\Identity
\\GFColumnMultiplication
x0 + x5 + x10 + x15 + x16 + x17 + x18 + x19 - 5 d0 >= 0
d0 - x0 >= 0
d0 - x5 >= 0
d0 - x10 >= 0
d0 - x15 >= 0
d0 - x16 >= 0
d0 - x17 >= 0
d0 - x18 >= 0
d0 - x19 >= 0
\\GFColumnMultiplication
x4 + x9 + x14 + x3 + x20 + x21 + x22 + x23 - 5 d1 >= 0
d1 - x4 >= 0
d1 - x9 >= 0
d1 - x14 >= 0
d1 - x3 >= 0
d1 - x20 >= 0
d1 - x21 >= 0
d1 - x22 >= 0
d1 - x23 >= 0
\\GFColumnMultiplication
x8 + x13 + x2 + x7 + x24 + x25 + x26 + x27 - 5 d2 >= 0
d2 - x8 >= 0
d2 - x13 >= 0
d2 - x2 >= 0
d2 - x7 >= 0
d2 - x24 >= 0
d2 - x25 >= 0
d2 - x26 >= 0
d2 - x27 >= 0
\\GFColumnMultiplication
x12 + x1 + x6 + x11 + x28 + x29 + x30 + x31 - 5 d3 >= 0
d3 - x12 >= 0
d3 - x1 >= 0
d3 - x6 >= 0
d3 - x11 >= 0
d3 - x28 >= 0
d3 - x29 >= 0
d3 - x30 >= 0
d3 - x31 >= 0
\\AddConstants
\\SBOX
\\SBOX
\\SBOX
\\SBOX
\\SBOX
\\SBOX
\\SBOX
\\SBOX
\\SBOX
\\SBOX
\\SBOX
\\SBOX
\\SBOX
\\SBOX
\\SBOX
\\SBOX
\\Identity
\\Identity
\\Identity
\\Identity
\\Identity
\\Identity
\\Identity
\\Identity
\\Identity
\\Identity
\\Identity
\\Identity
\\Identity
\\Identity
\\Identity
\\Identity
\\GFColumnMultiplication
x16 + x21 + x26 + x31 + x32 + x33 + x34 + x35 - 5 d4 >= 0
d4 - x16 >= 0
d4 - x21 >= 0
d4 - x26 >= 0
d4 - x31 >= 0
d4 - x32 >= 0
d4 - x33 >= 0
d4 - x34 >= 0
d4 - x35 >= 0
\\GFColumnMultiplication
x17 + x22 + x27 + x28 + x36 + x37 + x38 + x39 - 5 d5 >= 0
d5 - x17 >= 0
d5 - x22 >= 0
d5 - x27 >= 0
d5 - x28 >= 0
d5 - x36 >= 0
d5 - x37 >= 0
d5 - x38 >= 0
d5 - x39 >= 0
\\GFColumnMultiplication
x18 + x23 + x24 + x29 + x40 + x41 + x42 + x43 - 5 d6 >= 0
d6 - x18 >= 0
d6 - x23 >= 0
d6 - x24 >= 0
d6 - x29 >= 0
d6 - x40 >= 0
d6 - x41 >= 0
d6 - x42 >= 0
d6 - x43 >= 0
\\GFColumnMultiplication
x19 + x20 + x25 + x30 + x44 + x45 + x46 + x47 - 5 d7 >= 0
d7 - x19 >= 0
d7 - x20 >= 0
d7 - x25 >= 0
d7 - x30 >= 0
d7 - x44 >= 0
d7 - x45 >= 0
d7 - x46 >= 0
d7 - x47 >= 0
\\AddConstants
\\SBOX
\\SBOX
\\SBOX
\\SBOX
\\SBOX
\\SBOX
\\SBOX
\\SBOX
\\SBOX
\\SBOX
\\SBOX
\\SBOX
\\SBOX
\\SBOX
\\SBOX
\\SBOX
\\Identity
\\Identity
\\Identity
\\Identity
\\Identity
\\Identity
\\Identity
\\Identity
\\Identity
\\Identity
\\Identity
\\Identity
\\Identity
\\Identity
\\Identity
\\Identity
\\GFColumnMultiplication
x32 + x37 + x42 + x47 + x48 + x49 + x50 + x51 - 5 d8 >= 0
d8 - x32 >= 0
d8 - x37 >= 0
d8 - x42 >= 0
d8 - x47 >= 0
d8 - x48 >= 0
d8 - x49 >= 0
d8 - x50 >= 0
d8 - x51 >= 0
\\GFColumnMultiplication
x33 + x38 + x43 + x44 + x52 + x53 + x54 + x55 - 5 d9 >= 0
d9 - x33 >= 0
d9 - x38 >= 0
d9 - x43 >= 0
d9 - x44 >= 0
d9 - x52 >= 0
d9 - x53 >= 0
d9 - x54 >= 0
d9 - x55 >= 0
\\GFColumnMultiplication
x34 + x39 + x40 + x45 + x56 + x57 + x58 + x59 - 5 d10 >= 0
d10 - x34 >= 0
d10 - x39 >= 0
d10 - x40 >= 0
d10 - x45 >= 0
d10 - x56 >= 0
d10 - x57 >= 0
d10 - x58 >= 0
d10 - x59 >= 0
\\GFColumnMultiplication
x35 + x36 + x41 + x46 + x60 + x61 + x62 + x63 - 5 d11 >= 0
d11 - x35 >= 0
d11 - x36 >= 0
d11 - x41 >= 0
d11 - x46 >= 0
d11 - x60 >= 0
d11 - x61 >= 0
d11 - x62 >= 0
d11 - x63 >= 0
\\AddConstants
\\SBOX
\\SBOX
\\SBOX
\\SBOX
\\SBOX
\\SBOX
\\SBOX
\\SBOX
\\SBOX
\\SBOX
\\SBOX
\\SBOX
\\SBOX
\\SBOX
\\SBOX
\\SBOX
\\Identity
\\Identity
\\Identity
\\Identity
\\Identity
\\Identity
\\Identity
\\Identity
\\Identity
\\Identity
\\Identity
\\Identity
\\Identity
\\Identity
\\Identity
\\Identity
\\GFColumnMultiplication
x48 + x53 + x58 + x63 + x64 + x65 + x66 + x67 - 5 d12 >= 0
d12 - x48 >= 0
d12 - x53 >= 0
d12 - x58 >= 0
d12 - x63 >= 0
d12 - x64 >= 0
d12 - x65 >= 0
d12 - x66 >= 0
d12 - x67 >= 0
\\GFColumnMultiplication
x49 + x54 + x59 + x60 + x68 + x69 + x70 + x71 - 5 d13 >= 0
d13 - x49 >= 0
d13 - x54 >= 0
d13 - x59 >= 0
d13 - x60 >= 0
d13 - x68 >= 0
d13 - x69 >= 0
d13 - x70 >= 0
d13 - x71 >= 0
\\GFColumnMultiplication
x50 + x55 + x56 + x61 + x72 + x73 + x74 + x75 - 5 d14 >= 0
d14 - x50 >= 0
d14 - x55 >= 0
d14 - x56 >= 0
d14 - x61 >= 0
d14 - x72 >= 0
d14 - x73 >= 0
d14 - x74 >= 0
d14 - x75 >= 0
\\GFColumnMultiplication
x51 + x52 + x57 + x62 + x76 + x77 + x78 + x79 - 5 d15 >= 0
d15 - x51 >= 0
d15 - x52 >= 0
d15 - x57 >= 0
d15 - x62 >= 0
d15 - x76 >= 0
d15 - x77 >= 0
d15 - x78 >= 0
d15 - x79 >= 0
\\AddConstants
\\SBOX
\\SBOX
\\SBOX
\\SBOX
\\SBOX
\\SBOX
\\SBOX
\\SBOX
\\SBOX
\\SBOX
\\SBOX
\\SBOX
\\SBOX
\\SBOX
\\SBOX
\\SBOX
\\Identity
\\Identity
\\Identity
\\Identity
\\Identity
\\Identity
\\Identity
\\Identity
\\Identity
\\Identity
\\Identity
\\Identity
\\Identity
\\Identity
\\Identity
\\Identity
\\GFColumnMultiplication
x64 + x69 + x74 + x79 + x80 + x81 + x82 + x83 - 5 d16 >= 0
d16 - x64 >= 0
d16 - x69 >= 0
d16 - x74 >= 0
d16 - x79 >= 0
d16 - x80 >= 0
d16 - x81 >= 0
d16 - x82 >= 0
d16 - x83 >= 0
\\GFColumnMultiplication
x65 + x70 + x75 + x76 + x84 + x85 + x86 + x87 - 5 d17 >= 0
d17 - x65 >= 0
d17 - x70 >= 0
d17 - x75 >= 0
d17 - x76 >= 0
d17 - x84 >= 0
d17 - x85 >= 0
d17 - x86 >= 0
d17 - x87 >= 0
\\GFColumnMultiplication
x66 + x71 + x72 + x77 + x88 + x89 + x90 + x91 - 5 d18 >= 0
d18 - x66 >= 0
d18 - x71 >= 0
d18 - x72 >= 0
d18 - x77 >= 0
d18 - x88 >= 0
d18 - x89 >= 0
d18 - x90 >= 0
d18 - x91 >= 0
\\GFColumnMultiplication
x67 + x68 + x73 + x78 + x92 + x93 + x94 + x95 - 5 d19 >= 0
d19 - x67 >= 0
d19 - x68 >= 0
d19 - x73 >= 0
d19 - x78 >= 0
d19 - x92 >= 0
d19 - x93 >= 0
d19 - x94 >= 0
d19 - x95 >= 0
\\AddConstants
\\SBOX
\\SBOX
\\SBOX
\\SBOX
\\SBOX
\\SBOX
\\SBOX
\\SBOX
\\SBOX
\\SBOX
\\SBOX
\\SBOX
\\SBOX
\\SBOX
\\SBOX
\\SBOX
\\Identity
\\Identity
\\Identity
\\Identity
\\Identity
\\Identity
\\Identity
\\Identity
\\Identity
\\Identity
\\Identity
\\Identity
\\Identity
\\Identity
\\Identity
\\Identity
\\GFColumnMultiplication
x80 + x85 + x90 + x95 + x96 + x97 + x98 + x99 - 5 d20 >= 0
d20 - x80 >= 0
d20 - x85 >= 0
d20 - x90 >= 0
d20 - x95 >= 0
d20 - x96 >= 0
d20 - x97 >= 0
d20 - x98 >= 0
d20 - x99 >= 0
\\GFColumnMultiplication
x81 + x86 + x91 + x92 + x100 + x101 + x102 + x103 - 5 d21 >= 0
d21 - x81 >= 0
d21 - x86 >= 0
d21 - x91 >= 0
d21 - x92 >= 0
d21 - x100 >= 0
d21 - x101 >= 0
d21 - x102 >= 0
d21 - x103 >= 0
\\GFColumnMultiplication
x82 + x87 + x88 + x93 + x104 + x105 + x106 + x107 - 5 d22 >= 0
d22 - x82 >= 0
d22 - x87 >= 0
d22 - x88 >= 0
d22 - x93 >= 0
d22 - x104 >= 0
d22 - x105 >= 0
d22 - x106 >= 0
d22 - x107 >= 0
\\GFColumnMultiplication
x83 + x84 + x89 + x94 + x108 + x109 + x110 + x111 - 5 d23 >= 0
d23 - x83 >= 0
d23 - x84 >= 0
d23 - x89 >= 0
d23 - x94 >= 0
d23 - x108 >= 0
d23 - x109 >= 0
d23 - x110 >= 0
d23 - x111 >= 0
\\AddConstants
\\SBOX
\\SBOX
\\SBOX
\\SBOX
\\SBOX
\\SBOX
\\SBOX
\\SBOX
\\SBOX
\\SBOX
\\SBOX
\\SBOX
\\SBOX
\\SBOX
\\SBOX
\\SBOX
\\Identity
\\Identity
\\Identity
\\Identity
\\Identity
\\Identity
\\Identity
\\Identity
\\Identity
\\Identity
\\Identity
\\Identity
\\Identity
\\Identity
\\Identity
\\Identity
\\GFColumnMultiplication
x96 + x101 + x106 + x111 + x112 + x113 + x114 + x115 - 5 d24 >= 0
d24 - x96 >= 0
d24 - x101 >= 0
d24 - x106 >= 0
d24 - x111 >= 0
d24 - x112 >= 0
d24 - x113 >= 0
d24 - x114 >= 0
d24 - x115 >= 0
\\GFColumnMultiplication
x97 + x102 + x107 + x108 + x116 + x117 + x118 + x119 - 5 d25 >= 0
d25 - x97 >= 0
d25 - x102 >= 0
d25 - x107 >= 0
d25 - x108 >= 0
d25 - x116 >= 0
d25 - x117 >= 0
d25 - x118 >= 0
d25 - x119 >= 0
\\GFColumnMultiplication
x98 + x103 + x104 + x109 + x120 + x121 + x122 + x123 - 5 d26 >= 0
d26 - x98 >= 0
d26 - x103 >= 0
d26 - x104 >= 0
d26 - x109 >= 0
d26 - x120 >= 0
d26 - x121 >= 0
d26 - x122 >= 0
d26 - x123 >= 0
\\GFColumnMultiplication
x99 + x100 + x105 + x110 + x124 + x125 + x126 + x127 - 5 d27 >= 0
d27 - x99 >= 0
d27 - x100 >= 0
d27 - x105 >= 0
d27 - x110 >= 0
d27 - x124 >= 0
d27 - x125 >= 0
d27 - x126 >= 0
d27 - x127 >= 0
\\AddConstants
\\SBOX
\\SBOX
\\SBOX
\\SBOX
\\SBOX
\\SBOX
\\SBOX
\\SBOX
\\SBOX
\\SBOX
\\SBOX
\\SBOX
\\SBOX
\\SBOX
\\SBOX
\\SBOX
\\Identity
\\Identity
\\Identity
\\Identity
\\Identity
\\Identity
\\Identity
\\Identity
\\Identity
\\Identity
\\Identity
\\Identity
\\Identity
\\Identity
\\Identity
\\Identity
\\GFColumnMultiplication
x112 + x117 + x122 + x127 + x128 + x129 + x130 + x131 - 5 d28 >= 0
d28 - x112 >= 0
d28 - x117 >= 0
d28 - x122 >= 0
d28 - x127 >= 0
d28 - x128 >= 0
d28 - x129 >= 0
d28 - x130 >= 0
d28 - x131 >= 0
\\GFColumnMultiplication
x113 + x118 + x123 + x124 + x132 + x133 + x134 + x135 - 5 d29 >= 0
d29 - x113 >= 0
d29 - x118 >= 0
d29 - x123 >= 0
d29 - x124 >= 0
d29 - x132 >= 0
d29 - x133 >= 0
d29 - x134 >= 0
d29 - x135 >= 0
\\GFColumnMultiplication
x114 + x119 + x120 + x125 + x136 + x137 + x138 + x139 - 5 d30 >= 0
d30 - x114 >= 0
d30 - x119 >= 0
d30 - x120 >= 0
d30 - x125 >= 0
d30 - x136 >= 0
d30 - x137 >= 0
d30 - x138 >= 0
d30 - x139 >= 0
\\GFColumnMultiplication
x115 + x116 + x121 + x126 + x140 + x141 + x142 + x143 - 5 d31 >= 0
d31 - x115 >= 0
d31 - x116 >= 0
d31 - x121 >= 0
d31 - x126 >= 0
d31 - x140 >= 0
d31 - x141 >= 0
d31 - x142 >= 0
d31 - x143 >= 0
x0 + x1 + x2 + x3 + x4 + x5 + x6 + x7 + x8 + x9 + x10 + x11 + x12 + x13 + x14 + x15 >= 1

Binary
d0
d1
d2
d3
d4
d5
d6
d7
d8
d9
d10
d11
d12
d13
d14
d15
d16
d17
d18
d19
d20
d21
d22
d23
d24
d25
d26
d27
d28
d29
d30
d31
x0
x1
x2
x3
x4
x5
x6
x7
x8
x9
x10
x11
x12
x13
x14
x15
x16
x17
x18
x19
x20
x21
x22
x23
x24
x25
x26
x27
x28
x29
x30
x31
x32
x33
x34
x35
x36
x37
x38
x39
x40
x41
x42
x43
x44
x45
x46
x47
x48
x49
x50
x51
x52
x53
x54
x55
x56
x57
x58
x59
x60
x61
x62
x63
x64
x65
x66
x67
x68
x69
x70
x71
x72
x73
x74
x75
x76
x77
x78
x79
x80
x81
x82
x83
x84
x85
x86
x87
x88
x89
x90
x91
x92
x93
x94
x95
x96
x97
x98
x99
x100
x101
x102
x103
x104
x105
x106
x107
x108
x109
x110
x111
x112
x113
x114
x115
x116
x117
x118
x119
x120
x121
x122
x123
x124
x125
x126
x127
x128
x129
x130
x131
x132
x133
x134
x135
x136
x137
x138
x139
x140
x141
x142
x143
End